1	16,1	2	0,0	3	18,6	4	14,0	5	0,0	6	0,0	7	0,0	8	0,0	9	0,0	10	6,7
1	15,6	2	10,3	3	0,0	4	8,3	5	17,1	6	0,0	7	0,0	8	15,3	9	0,0	10	0,0
1	0,0	2	0,0	3	12,9	4	0,0	5	11,0	6	16,6	7	0,0	8	0,0	9	19,3	10	0,0
1	5,9	2	0,0	3	9,9	4	0,0	5	0,0	6	0,0	7	18,8	8	0,0	9	0,0	10	0,0
1	0,0	2	9,1	3	0,0	4	19,1	5	11,7	6	0,0	7	0,0	8	7,5	9	0,0	10	0,0
1	0,0	2	16,7	3	7,4	4	0,0	5	17,0	6	15,0	7	0,0	8	0,0	9	19,2	10	0,0
1	0,0	2	13,0	3	0,0	4	5,1	5	0,0	6	0,0	7	19,2	8	0,0	9	0,0	10	12,9
1	18,7	2	0,0	3	18,6	4	0,0	5	0,0	6	0,0	7	0,0	8	0,0	9	0,0	10	9,2
1	0,0	2	18,4	3	0,0	4	15,4	5	15,6	6	0,0	7	0,0	8	12,1	9	0,0	10	0,0
1	0,0	2	0,0	3	16,3	4	0,0	5	0,0	6	10,0	7	11,7	8	0,0	9	0,0	10	18,6
1	0,0	2,00	6,5	3,00	0,0	4	0,0	5,00	5,9	6	0,0	7	11,6	8	0,0	9	6,2	10	10,3
1	17,0	2	0,0	3	15,7	4	0,0	5	18,3	6	0,0	7	8,1	8	10,3	9	7,2	10	0,0
1	0,0	2	18,6	3	0,0	4	0,0	5	0,0	6	18,8	7	0,0	8	11,6	9	15,2	10	18,8
1	19,2	2	8,8	3	6,2	4	0,0	5	0,0	6	18,8	7	0,0	8	17,5	9	17,1	10	0,0
1	8,9	2	0,0	3	19,4	4	0,0	5	11,7	6	12,5	7	17,1	8	13,0	9	0,0	10	0,0
1	0,0	2	20,0	3	0,0	4	18,1	5	0,0	6	13,4	7	0,0	8	8,1	9	0,0	10	0,0
1	14,0	2	0,0	3	8,7	4	15,5	5	5,4	6	0,0	7	0,0	8	17,7	9	0,0	10	0,0
1	0,0	2	0,0	3	8,4	4	0,0	5	0,0	6	15,9	7	9,2	8	0,0	9	5,7	10	9,4
1	8,5	2	0,0	3	0,0	4	16,5	5	10,8	6	16,6	7	5,4	8	13,0	9	0,0	10	16,4
1	0,0	2	14,3	3	0,0	4	11,4	5	0,0	6	0,0	7	11,9	8	0,0	9	8,0	10	14,3
																			
1	2,9	2	3,4	3	5,0	4	4,6	5	2,9	6	2,6	7	5,0	8	3,2	9	3,0	10	4,9
